(set-option :pp.decimal true)
(set-option :pp.decimal_precision 7)
(declare-const conc1 Real)
(declare-const conc2 Real)
(declare-const conc3 Real)
(declare-const conc4 Real)
(declare-const conc5 Real)
(declare-const flow1 Real)
(declare-const flow2 Real)
(declare-const flow3 Real)
(declare-const flow4 Real)
(declare-const flow5 Real)
(assert (> conc1 0))
(assert (> conc2 0))
(assert (> conc3 0))
(assert (> conc4 0))
(assert (> conc5 0))
(assert (= flow1 (+ (* 0.306263 conc1 conc2) (* -1. 0.248255 conc3))))
(assert (= flow2 (+ (* 0.0707228 conc1 conc3) (* -1. 0.165715 conc4))))
(assert (= flow3 (+ (* 0.379152 conc2 conc2) (* -1. 0.833874 conc4))))
(assert (= flow4 (+ (* 0.228403 conc1 conc4) (* -1. 0.118495 conc5))))
(assert (= flow5 (+ (* 0.26135 conc2 conc3) (* -1. 0.367879 conc5))))
(assert (= (+ (* -1 flow1) (* -1 flow2) (* -1 flow4) 10.6979 (* -1. 0.5 conc1)) 0))
(assert (= (+ (* -1 flow1) (* -2 flow3) (* -1 flow5) 0 (* -1. 0.5 conc2)) 0))
(assert (= (+ (* 1 flow1) (* -1 flow2) (* -1 flow5) 0 (* -1. 0.5 conc3)) 0))
(assert (= (+ (* 1 flow2) (* 1 flow3) (* -1 flow4) 0 (* -1. 0.5 conc4)) 0))
(assert (= (+ (* 1 flow4) (* 1 flow5) 0 (* -1. 0.5 conc5)) 0))
(check-sat)
(get-model)
